30
1 0 11
2 0 20
2 1 16
3 0 20
3 1 13
4 0 13
4 2 6
4 3 15
5 1 15
5 2 1
5 3 15
5 4 6
6 1 9
6 2 18
6 3 10
6 4 11
6 5 18
7 1 1
7 2 6
7 3 7
7 6 18
8 1 20
8 2 14
8 3 5
8 4 1
8 5 15
8 6 15
9 0 2
9 3 10
9 5 9
9 6 14
9 7 18
9 8 6
10 1 6
10 4 1
10 5 16
10 6 4
10 7 14
10 8 5
11 1 11
11 2 3
11 3 13
11 4 15
11 6 5
11 8 7
11 9 4
11 10 3
12 0 18
12 2 1
12 5 4
12 6 5
12 9 9
12 10 18
13 0 9
13 1 13
13 2 16
13 4 11
13 5 9
13 6 6
13 9 2
13 10 6
13 12 16
14 1 6
14 2 18
14 4 9
14 5 12
14 6 19
14 7 11
14 8 6
14 9 10
14 11 1
14 13 11
15 1 3
15 2 7
15 5 13
15 6 9
15 7 13
15 9 7
15 10 7
15 11 15
15 12 17
15 14 10
16 0 3
16 2 16
16 3 11
16 5 10
16 6 9
16 8 8
16 9 14
16 11 1
16 12 3
16 13 14
16 14 14
17 0 15
17 1 6
17 2 7
17 4 12
17 5 11
17 6 2
17 8 15
17 9 5
17 10 6
17 11 1
17 14 10
17 16 12
18 0 5
18 1 18
18 2 14
18 3 15
18 5 2
18 7 8
18 8 2
18 10 10
18 11 9
18 12 18
18 14 4
18 15 16
18 16 15
18 17 12
19 0 20
19 1 18
19 2 11
19 3 16
19 4 19
19 6 3
19 7 7
19 8 4
19 9 9
19 10 1
19 14 9
19 15 18
19 16 1
19 17 8
20 0 1
20 2 15
20 4 13
20 5 2
20 7 17
20 8 4
20 9 4
20 10 19
20 11 11
20 13 2
20 14 6
20 15 3
20 16 4
20 17 7
20 18 3
20 19 7
21 3 2
21 4 6
21 6 19
21 7 15
21 8 17
21 9 12
21 11 4
21 12 18
21 13 12
21 15 14
21 16 3
21 17 6
21 18 6
21 19 20
22 0 7
22 1 10
22 3 9
22 4 18
22 5 9
22 6 17
22 9 19
22 10 11
22 12 9
22 14 6
22 16 19
22 18 6
22 19 19
22 21 19
23 0 18
23 1 3
23 2 4
23 4 7
23 5 3
23 6 8
23 7 16
23 8 18
23 9 15
23 12 16
23 13 17
23 14 15
23 16 6
23 17 1
23 18 3
23 19 9
23 21 5
23 22 1
24 0 2
24 1 15
24 3 14
24 4 19
24 6 16
24 8 17
24 9 9
24 10 4
24 11 1
24 13 17
24 14 8
24 15 16
24 16 19
24 17 12
24 18 15
24 19 10
24 20 17
24 21 6
24 22 3
24 23 20
25 0 7
25 1 18
25 2 13
25 3 5
25 7 6
25 8 15
25 9 1
25 10 17
25 11 1
25 12 11
25 13 11
25 14 11
25 15 1
25 16 15
25 17 11
25 18 13
25 19 19
25 20 11
25 23 18
25 24 12
26 0 16
26 1 17
26 2 11
26 3 12
26 4 3
26 6 3
26 7 4
26 9 19
26 10 18
26 11 10
26 12 4
26 13 1
26 14 19
26 16 12
26 17 11
26 20 10
26 22 4
26 24 7
27 0 1
27 3 9
27 9 14
27 10 9
27 11 14
27 12 1
27 13 11
27 15 17
27 16 3
27 18 17
27 21 13
27 22 16
27 23 4
27 24 2
27 25 16
27 26 11
28 1 2
28 2 20
28 3 12
28 4 13
28 5 2
28 6 9
28 7 19
28 8 11
28 9 7
28 10 20
28 11 5
28 13 9
28 14 5
28 15 4
28 16 8
28 17 9
28 18 18
28 19 1
28 20 3
28 22 5
28 23 6
28 25 9
28 26 8
28 27 2
29 0 7
29 1 20
29 2 8
29 3 6
29 4 14
29 7 11
29 8 8
29 9 16
29 10 15
29 13 18
29 15 19
29 17 7
29 18 5
29 19 18
29 20 20
29 21 4
29 22 17
29 23 2
29 25 9
29 27 18
29 28 15
